SAT
-43 -100 1 87 63 50 -98 96 13 -21 48 3 22 -34 91 -52 -66 -49 58 -61 -84 -93 -30 -57 99 88 31 17 97 -75 -47 -42 -71 10 55 -44 -65 95 12 -38 -73 64 -36 11 62 -79 -85 -68 19 -5 -37 -33 -94 -59 -9 -77 46 56 -60 -4 -86 -80 -8 -69 92 -39 -83 -81 45 -70 -29 -7 16 -14 -25 -78 -28 -6 41 90 20 -82 -24 -76 -54 35 -23 72 -15 74 -18 26 67 27 40 -32 -51 89 -53 -2 0
